problem_generation/data/GISP/train/er_n=67_m=1321_p=0.60_SET2_setparam=100.00_alpha=0.50_666.lp
maximize
OBJ:100x0 + 100x1 + 100x2 + 100x3 + 100x4 + 100x5 + 100x6 + 100x7 + 100x8 + 100x9 + 100x10 + 100x11 + 100x12 + 100x13 + 100x14 + 100x15 + 100x16 + 100x17 + 100x18 + 100x19 + 100x20 + 100x21 + 100x22 + 100x23 + 100x24 + 100x25 + 100x26 + 100x27 + 100x28 + 100x29 + 100x30 + 100x31 + 100x32 + 100x33 + 100x34 + 100x35 + 100x36 + 100x37 + 100x38 + 100x39 + 100x40 + 100x41 + 100x42 + 100x43 + 100x44 + 100x45 + 100x46 + 100x47 + 100x48 + 100x49 + 100x50 + 100x51 + 100x52 + 100x53 + 100x54 + 100x55 + 100x56 + 100x57 + 100x58 + 100x59 + 100x60 + 100x61 + 100x62 + 100x63 + 100x64 + 100x65 + 100x66 - y55_57 - y7_17 - y15_30 - y26_30 - y36_62 - y47_62 - y26_39 - y59_64 - y8_9 - y0_14 - y6_48 - y11_14 - y29_50 - y48_63 - y0_23 - y11_23 - y21_55 - y41_42 - y10_36 - y33_38 - y41_51 - y33_47 - y44_47 - y2_41 - y2_50 - y25_52 - y22_28 - y51_64 - y13_65 - y15_16 - y36_48 - y15_25 - y47_57 - y7_30 - y5_60 - y29_36 - y40_45 - y6_61 - y2_27 - y33_42 - y10_49 - y3_19 - y14_19 - y32_55 - y13_51 - y13_60 - y24_60 - y35_60 - y17_39 - y7_16 - y5_46 - y28_48 - y36_61 - y47_61 - y5_64 - y6_29 - y17_66 - y9_62 - y48_53 - y21_45 - y21_54 - y2_13 - y10_26 - y62_64 - y32_41 - y51_54 - y3_14 - y51_63 - y32_59 - y13_55 - y24_55 - y14_32 - y35_55 - y36_38 - y28_34 - y36_47 - y55_60 - y17_43 - y36_56 - y9_39 - y17_61 - y28_61 - y9_66 - y21_31 - y42_63 - y21_40 - y6_51 - y10_12 - y39_48 - y31_53 - y10_39 - y3_9 - y43_45 - y13_41 - y35_41 - y32_63 - y17_20 - y5_27 - y28_29 - y17_38 - y28_38 - y5_45 - y6_10 - y28_47 - y6_19 - y6_28 - y58_66 - y50_62 - y61_62 - y6_37 - y42_58 - y31_57 - y31_66 - y32_40 - y1_34 - y24_36 - y35_36 - y43_49 - y13_45 - y24_45 - y35_45 - y24_63 - y9_11 - y17_24 - y57_60 - y36_37 - y17_33 - y3_47 - y9_29 - y5_49 - y58_61 - y6_32 - y61_66 - y0_65 - y10_11 - y2_7 - y20_43 - y31_43 - y20_52 - y31_52 - y39_65 - y4_44 - y4_53 - y12_66 - y1_29 - y23_66 - y4_62 - y24_40 - y35_40 - y16_36 - y13_49 - y5_8 - y1_56 - y35_58 - y1_65 - y9_24 - y38_60 - y9_33 - y6_18 - y50_52 - y19_46 - y42_48 - y27_59 - y19_64 - y30_64 - y42_66 - y11_60 - y23_25 - y39_42 - y20_47 - y20_56 - y31_56 - y23_52 - y4_57 - y1_33 - y24_35 - y35_44 - y57_59 - y15_53 - y49_64 - y5_39 - y19_32 - y27_45 - y30_41 - y42_43 - y50_56 - y11_37 - y8_50 - y19_50 - y0_64 - y4_25 - y20_51 - y31_51 - y12_47 - y1_10 - y4_43 - y1_19 - y53_57 - y16_17 - y45_53 - y13_30 - y22_60 - y34_62 - y1_37 - y37_58 - y56_62 - y16_35 - y14_65 - y9_14 - y15_48 - y15_57 - y27_31 - y8_27 - y19_27 - y27_49 - y8_45 - y27_58 - y30_54 - y19_63 - y20_28 - y4_11 - y0_59 - y11_59 - y41_60 - y20_37 - y23_33 - y33_65 - y44_65 - y1_5 - y34_48 - y1_23 - y53_61 - y56_57 - y16_30 - y56_66 - y3_60 - y14_60 - y26_34 - y38_45 - y7_39 - y7_48 - y18_48 - y18_57 - y27_35 - y0_18 - y7_66 - y19_31 - y63_65 - y11_36 - y4_6 - y11_54 - y52_55 - y4_15 - y23_28 - y41_64 - y4_24 - y4_33 - y1_9 - y2_63 - y25_65 - y53_65 - y37_48 - y22_59 - y34_61 - y3_55 - y37_57 - y15_29 - y26_29 - y38_40 - y26_47 - y7_43 - y0_4 - y11_13 - y48_62 - y11_22 - y8_35 - y0_31 - y0_40 - y60_63 - y4_19 - y10_62 - y2_58 - y3_32 - y3_41 - y22_54 - y3_50 - y3_59 - y15_24 - y37_61 - y7_20 - y7_29 - y7_38 - y26_51 - y7_47 - y7_56 - y8_21 - y0_26 - y40_62 - y0_35 - y11_35 - y41_54 - y10_48 - y2_44 - y14_56 - y10_57 - y45_51 - y37_47 - y22_58 - y3_54 - y14_63 - y26_37 - y26_46 - y28_65 - y18_42 - y0_3 - y48_52 - y40_48 - y48_61 - y40_57 - y11_30 - y29_66 - y40_66 - y41_49 - y44_45 - y25_41 - y10_52 - y25_59 - y3_40 - y3_49 - y14_49 - y18_19 - y36_55 - y17_51 - y28_51 - y18_28 - y47_64 - y40_43 - y0_16 - y11_16 - y29_52 - y21_48 - y40_52 - y29_61 - y10_20 - y21_66 - y25_27 - y25_36 - y10_47 - y44_49 - y25_54 - y3_17 - y14_17 - y22_30 - y32_53 - y2_61 - y15_18 - y7_14 - y55_63 - y17_46 - y18_23 - y28_55 - y9_51 - y28_64 - y6_36 - y21_34 - y40_47 - y40_56 - y21_52 - y10_33 - y2_29 - y20_65 - y10_42 - y25_40 - y51_52 - y51_61 - y43_57 - y35_53 - y3_30 - y14_30 - y43_66 - y13_62 - y24_62 - y17_32 - y28_32 - y28_41 - y36_54 - y9_46 - y9_64 - y50_65 - y40_51 - y6_58 - y10_19 - y2_15 - y39_64 - y2_33 - y32_34 - y12_65 - y2_42 - y3_7 - y24_39 - y51_65 - y14_25 - y32_61 - y13_57 - y24_57 - y13_66 - y35_66 - y9_23 - y9_50 - y5_61 - y6_35 - y42_65 - y2_10 - y31_46 - y10_23 - y13_25 - y2_37 - y24_34 - y4_65 - y32_47 - y1_41 - y13_43 - y24_43 - y32_56 - y43_56 - y13_52 - y35_52 - y43_65 - y1_59 - y13_61 - y35_61 - y16_57 - y16_66 - y36_44 - y5_38 - y6_21 - y58_59 - y6_30 - y42_51 - y21_28 - y2_23 - y4_42 - y20_59 - y12_55 - y23_64 - y16_25 - y13_38 - y35_38 - y16_34 - y24_47 - y1_63 - y65_66 - y9_13 - y16_61 - y38_58 - y49_58 - y9_31 - y6_7 - y9_40 - y27_48 - y27_57 - y8_53 - y42_55 - y0_49 - y0_58 - y11_58 - y10_13 - y12_32 - y2_9 - y20_45 - y12_50 - y13_15 - y20_63 - y4_46 - y13_24 - y1_22 - y32_37 - y53_60 - y1_31 - y13_33 - y24_33 - y43_46 - y45_65 - y1_40 - y13_42 - y24_42 - y35_51 - y5_10 - y1_58 - y46_48 - y46_57 - y26_60 - y49_62 - y5_37 - y9_35 - y27_34 - y19_39 - y30_39 - y19_48 - y27_61 - y8_57 - y12_18 - y8_66 - y39_44 - y20_40 - y12_36 - y4_32 - y1_8 - y4_41 - y12_54 - y53_55 - y23_63 - y1_26 - y53_64 - y16_24 - y34_60 - y35_37 - y37_65 - y15_46 - y57_61 - y9_21 - y15_55 - y38_57 - y15_64 - y38_66 - y7_60 - y18_60 - y8_34 - y30_34 - y0_30 - y30_43 - y27_56 - y0_39 - y19_52 - y30_52 - y27_65 - y30_61 - y4_18 - y0_66 - y31_44 - y1_3 - y45_46 - y13_23 - y16_28 - y34_64 - y45_64 - y3_58 - y56_64 - y5_9 - y46_47 - y15_41 - y38_43 - y5_18 - y7_46 - y38_61 - y18_55 - y27_33 - y11_25 - y0_34 - y8_47 - y19_47 - y30_47 - y0_52 - y12_17 - y33_58 - y44_58 - y12_35 - y1_7 - y4_40 - y13_18 - y22_48 - y34_50 - y1_25 - y37_46 - y14_53 - y3_62 - y37_64 - y7_32 - y18_32 - y19_24 - y27_37 - y19_33 - y11_29 - y29_65 - y8_42 - y19_42 - y11_38 - y4_8 - y12_21 - y41_57 - y23_30 - y25_49 - y10_60 - y44_62 - y22_34 - y1_11 - y3_39 - y45_54 - y3_48 - y14_48 - y22_61 - y45_63 - y37_59 - y14_66 - y18_27 - y26_40 - y7_45 - y8_10 - y0_6 - y8_19 - y8_28 - y19_37 - y21_65 - y60_65 - y41_61 - y25_53 - y33_66 - y44_66 - y37_45 - y22_56 - y3_61 - y15_26 - y55_62 - y7_22 - y7_31 - y18_31 - y15_44 - y26_44 - y18_40 - y7_49 - y29_46 - y19_23 - y48_59 - y40_55 - y21_51 - y0_28 - y6_62 - y10_50 - y44_52 - y41_65 - y25_57 - y3_20 - y25_66 - y34_44 - y14_38 - y22_51 - y14_47 - y3_56
 Subject to
C1: x0+x1 <=1 
C2: x0+x3-y0_3 <=1 
C3: x0+x4-y0_4 <=1 
C4: x0+x6-y0_6 <=1 
C5: x0+x8 <=1 
C6: x0+x10 <=1 
C7: x0+x14-y0_14 <=1 
C8: x0+x16-y0_16 <=1 
C9: x0+x18-y0_18 <=1 
C10: x0+x21 <=1 
C11: x0+x23-y0_23 <=1 
C12: x0+x24 <=1 
C13: x0+x26-y0_26 <=1 
C14: x0+x28-y0_28 <=1 
C15: x0+x30-y0_30 <=1 
C16: x0+x31-y0_31 <=1 
C17: x0+x34-y0_34 <=1 
C18: x0+x35-y0_35 <=1 
C19: x0+x37 <=1 
C20: x0+x38 <=1 
C21: x0+x39-y0_39 <=1 
C22: x0+x40-y0_40 <=1 
C23: x0+x41 <=1 
C24: x0+x42 <=1 
C25: x0+x48 <=1 
C26: x0+x49-y0_49 <=1 
C27: x0+x52-y0_52 <=1 
C28: x0+x56 <=1 
C29: x0+x58-y0_58 <=1 
C30: x0+x59-y0_59 <=1 
C31: x0+x60 <=1 
C32: x0+x61 <=1 
C33: x0+x62 <=1 
C34: x0+x64-y0_64 <=1 
C35: x0+x65-y0_65 <=1 
C36: x0+x66-y0_66 <=1 
C37: x1+x2 <=1 
C38: x1+x3-y1_3 <=1 
C39: x1+x5-y1_5 <=1 
C40: x1+x7-y1_7 <=1 
C41: x1+x8-y1_8 <=1 
C42: x1+x9-y1_9 <=1 
C43: x1+x10-y1_10 <=1 
C44: x1+x11-y1_11 <=1 
C45: x1+x13 <=1 
C46: x1+x19-y1_19 <=1 
C47: x1+x21 <=1 
C48: x1+x22-y1_22 <=1 
C49: x1+x23-y1_23 <=1 
C50: x1+x24 <=1 
C51: x1+x25-y1_25 <=1 
C52: x1+x26-y1_26 <=1 
C53: x1+x27 <=1 
C54: x1+x28 <=1 
C55: x1+x29-y1_29 <=1 
C56: x1+x30 <=1 
C57: x1+x31-y1_31 <=1 
C58: x1+x32 <=1 
C59: x1+x33-y1_33 <=1 
C60: x1+x34-y1_34 <=1 
C61: x1+x35 <=1 
C62: x1+x37-y1_37 <=1 
C63: x1+x40-y1_40 <=1 
C64: x1+x41-y1_41 <=1 
C65: x1+x43 <=1 
C66: x1+x51 <=1 
C67: x1+x52 <=1 
C68: x1+x54 <=1 
C69: x1+x56-y1_56 <=1 
C70: x1+x57 <=1 
C71: x1+x58-y1_58 <=1 
C72: x1+x59-y1_59 <=1 
C73: x1+x60 <=1 
C74: x1+x63-y1_63 <=1 
C75: x1+x64 <=1 
C76: x1+x65-y1_65 <=1 
C77: x2+x4 <=1 
C78: x2+x6 <=1 
C79: x2+x7-y2_7 <=1 
C80: x2+x9-y2_9 <=1 
C81: x2+x10-y2_10 <=1 
C82: x2+x11 <=1 
C83: x2+x13-y2_13 <=1 
C84: x2+x14 <=1 
C85: x2+x15-y2_15 <=1 
C86: x2+x17 <=1 
C87: x2+x19 <=1 
C88: x2+x20 <=1 
C89: x2+x22 <=1 
C90: x2+x23-y2_23 <=1 
C91: x2+x25 <=1 
C92: x2+x27-y2_27 <=1 
C93: x2+x28 <=1 
C94: x2+x29-y2_29 <=1 
C95: x2+x30 <=1 
C96: x2+x33-y2_33 <=1 
C97: x2+x34 <=1 
C98: x2+x35 <=1 
C99: x2+x37-y2_37 <=1 
C100: x2+x40 <=1 
C101: x2+x41-y2_41 <=1 
C102: x2+x42-y2_42 <=1 
C103: x2+x43 <=1 
C104: x2+x44-y2_44 <=1 
C105: x2+x46 <=1 
C106: x2+x47 <=1 
C107: x2+x48 <=1 
C108: x2+x49 <=1 
C109: x2+x50-y2_50 <=1 
C110: x2+x51 <=1 
C111: x2+x54 <=1 
C112: x2+x55 <=1 
C113: x2+x56 <=1 
C114: x2+x58-y2_58 <=1 
C115: x2+x61-y2_61 <=1 
C116: x2+x63-y2_63 <=1 
C117: x2+x65 <=1 
C118: x3+x4 <=1 
C119: x3+x5 <=1 
C120: x3+x7-y3_7 <=1 
C121: x3+x9-y3_9 <=1 
C122: x3+x14-y3_14 <=1 
C123: x3+x15 <=1 
C124: x3+x17-y3_17 <=1 
C125: x3+x19-y3_19 <=1 
C126: x3+x20-y3_20 <=1 
C127: x3+x24 <=1 
C128: x3+x27 <=1 
C129: x3+x28 <=1 
C130: x3+x30-y3_30 <=1 
C131: x3+x31 <=1 
C132: x3+x32-y3_32 <=1 
C133: x3+x33 <=1 
C134: x3+x34 <=1 
C135: x3+x36 <=1 
C136: x3+x39-y3_39 <=1 
C137: x3+x40-y3_40 <=1 
C138: x3+x41-y3_41 <=1 
C139: x3+x43 <=1 
C140: x3+x45 <=1 
C141: x3+x47-y3_47 <=1 
C142: x3+x48-y3_48 <=1 
C143: x3+x49-y3_49 <=1 
C144: x3+x50-y3_50 <=1 
C145: x3+x54-y3_54 <=1 
C146: x3+x55-y3_55 <=1 
C147: x3+x56-y3_56 <=1 
C148: x3+x57 <=1 
C149: x3+x58-y3_58 <=1 
C150: x3+x59-y3_59 <=1 
C151: x3+x60-y3_60 <=1 
C152: x3+x61-y3_61 <=1 
C153: x3+x62-y3_62 <=1 
C154: x3+x63 <=1 
C155: x3+x65 <=1 
C156: x4+x6-y4_6 <=1 
C157: x4+x7 <=1 
C158: x4+x8-y4_8 <=1 
C159: x4+x11-y4_11 <=1 
C160: x4+x15-y4_15 <=1 
C161: x4+x16 <=1 
C162: x4+x18-y4_18 <=1 
C163: x4+x19-y4_19 <=1 
C164: x4+x20 <=1 
C165: x4+x24-y4_24 <=1 
C166: x4+x25-y4_25 <=1 
C167: x4+x27 <=1 
C168: x4+x28 <=1 
C169: x4+x30 <=1 
C170: x4+x31 <=1 
C171: x4+x32-y4_32 <=1 
C172: x4+x33-y4_33 <=1 
C173: x4+x37 <=1 
C174: x4+x38 <=1 
C175: x4+x40-y4_40 <=1 
C176: x4+x41-y4_41 <=1 
C177: x4+x42-y4_42 <=1 
C178: x4+x43-y4_43 <=1 
C179: x4+x44-y4_44 <=1 
C180: x4+x45 <=1 
C181: x4+x46-y4_46 <=1 
C182: x4+x47 <=1 
C183: x4+x51 <=1 
C184: x4+x53-y4_53 <=1 
C185: x4+x57-y4_57 <=1 
C186: x4+x60 <=1 
C187: x4+x61 <=1 
C188: x4+x62-y4_62 <=1 
C189: x4+x63 <=1 
C190: x4+x65-y4_65 <=1 
C191: x4+x66 <=1 
C192: x5+x8-y5_8 <=1 
C193: x5+x9-y5_9 <=1 
C194: x5+x10-y5_10 <=1 
C195: x5+x11 <=1 
C196: x5+x12 <=1 
C197: x5+x13 <=1 
C198: x5+x15 <=1 
C199: x5+x16 <=1 
C200: x5+x18-y5_18 <=1 
C201: x5+x19 <=1 
C202: x5+x20 <=1 
C203: x5+x25 <=1 
C204: x5+x26 <=1 
C205: x5+x27-y5_27 <=1 
C206: x5+x29 <=1 
C207: x5+x30 <=1 
C208: x5+x31 <=1 
C209: x5+x32 <=1 
C210: x5+x33 <=1 
C211: x5+x35 <=1 
C212: x5+x36 <=1 
C213: x5+x37-y5_37 <=1 
C214: x5+x38-y5_38 <=1 
C215: x5+x39-y5_39 <=1 
C216: x5+x40 <=1 
C217: x5+x41 <=1 
C218: x5+x45-y5_45 <=1 
C219: x5+x46-y5_46 <=1 
C220: x5+x47 <=1 
C221: x5+x49-y5_49 <=1 
C222: x5+x51 <=1 
C223: x5+x53 <=1 
C224: x5+x54 <=1 
C225: x5+x55 <=1 
C226: x5+x56 <=1 
C227: x5+x60-y5_60 <=1 
C228: x5+x61-y5_61 <=1 
C229: x5+x64-y5_64 <=1 
C230: x6+x7-y6_7 <=1 
C231: x6+x10-y6_10 <=1 
C232: x6+x11 <=1 
C233: x6+x16 <=1 
C234: x6+x18-y6_18 <=1 
C235: x6+x19-y6_19 <=1 
C236: x6+x20 <=1 
C237: x6+x21-y6_21 <=1 
C238: x6+x22 <=1 
C239: x6+x23 <=1 
C240: x6+x25 <=1 
C241: x6+x26 <=1 
C242: x6+x27 <=1 
C243: x6+x28-y6_28 <=1 
C244: x6+x29-y6_29 <=1 
C245: x6+x30-y6_30 <=1 
C246: x6+x31 <=1 
C247: x6+x32-y6_32 <=1 
C248: x6+x33 <=1 
C249: x6+x34 <=1 
C250: x6+x35-y6_35 <=1 
C251: x6+x36-y6_36 <=1 
C252: x6+x37-y6_37 <=1 
C253: x6+x38 <=1 
C254: x6+x41 <=1 
C255: x6+x45 <=1 
C256: x6+x46 <=1 
C257: x6+x48-y6_48 <=1 
C258: x6+x50 <=1 
C259: x6+x51-y6_51 <=1 
C260: x6+x52 <=1 
C261: x6+x55 <=1 
C262: x6+x56 <=1 
C263: x6+x57 <=1 
C264: x6+x58-y6_58 <=1 
C265: x6+x59 <=1 
C266: x6+x61-y6_61 <=1 
C267: x6+x62-y6_62 <=1 
C268: x6+x64 <=1 
C269: x6+x65 <=1 
C270: x6+x66 <=1 
C271: x7+x8 <=1 
C272: x7+x10 <=1 
C273: x7+x11 <=1 
C274: x7+x12 <=1 
C275: x7+x13 <=1 
C276: x7+x14-y7_14 <=1 
C277: x7+x15 <=1 
C278: x7+x16-y7_16 <=1 
C279: x7+x17-y7_17 <=1 
C280: x7+x20-y7_20 <=1 
C281: x7+x22-y7_22 <=1 
C282: x7+x23 <=1 
C283: x7+x27 <=1 
C284: x7+x28 <=1 
C285: x7+x29-y7_29 <=1 
C286: x7+x30-y7_30 <=1 
C287: x7+x31-y7_31 <=1 
C288: x7+x32-y7_32 <=1 
C289: x7+x34 <=1 
C290: x7+x35 <=1 
C291: x7+x36 <=1 
C292: x7+x38-y7_38 <=1 
C293: x7+x39-y7_39 <=1 
C294: x7+x40 <=1 
C295: x7+x43-y7_43 <=1 
C296: x7+x45-y7_45 <=1 
C297: x7+x46-y7_46 <=1 
C298: x7+x47-y7_47 <=1 
C299: x7+x48-y7_48 <=1 
C300: x7+x49-y7_49 <=1 
C301: x7+x50 <=1 
C302: x7+x54 <=1 
C303: x7+x56-y7_56 <=1 
C304: x7+x57 <=1 
C305: x7+x58 <=1 
C306: x7+x59 <=1 
C307: x7+x60-y7_60 <=1 
C308: x7+x63 <=1 
C309: x7+x64 <=1 
C310: x7+x66-y7_66 <=1 
C311: x8+x9-y8_9 <=1 
C312: x8+x10-y8_10 <=1 
C313: x8+x12 <=1 
C314: x8+x14 <=1 
C315: x8+x15 <=1 
C316: x8+x17 <=1 
C317: x8+x19-y8_19 <=1 
C318: x8+x20 <=1 
C319: x8+x21-y8_21 <=1 
C320: x8+x22 <=1 
C321: x8+x24 <=1 
C322: x8+x27-y8_27 <=1 
C323: x8+x28-y8_28 <=1 
C324: x8+x32 <=1 
C325: x8+x33 <=1 
C326: x8+x34-y8_34 <=1 
C327: x8+x35-y8_35 <=1 
C328: x8+x38 <=1 
C329: x8+x41 <=1 
C330: x8+x42-y8_42 <=1 
C331: x8+x43 <=1 
C332: x8+x45-y8_45 <=1 
C333: x8+x47-y8_47 <=1 
C334: x8+x50-y8_50 <=1 
C335: x8+x51 <=1 
C336: x8+x53-y8_53 <=1 
C337: x8+x57-y8_57 <=1 
C338: x8+x58 <=1 
C339: x8+x59 <=1 
C340: x8+x61 <=1 
C341: x8+x62 <=1 
C342: x8+x64 <=1 
C343: x8+x66-y8_66 <=1 
C344: x9+x10 <=1 
C345: x9+x11-y9_11 <=1 
C346: x9+x13-y9_13 <=1 
C347: x9+x14-y9_14 <=1 
C348: x9+x15 <=1 
C349: x9+x18 <=1 
C350: x9+x21-y9_21 <=1 
C351: x9+x22 <=1 
C352: x9+x23-y9_23 <=1 
C353: x9+x24-y9_24 <=1 
C354: x9+x26 <=1 
C355: x9+x27 <=1 
C356: x9+x28 <=1 
C357: x9+x29-y9_29 <=1 
C358: x9+x31-y9_31 <=1 
C359: x9+x32 <=1 
C360: x9+x33-y9_33 <=1 
C361: x9+x34 <=1 
C362: x9+x35-y9_35 <=1 
C363: x9+x38 <=1 
C364: x9+x39-y9_39 <=1 
C365: x9+x40-y9_40 <=1 
C366: x9+x41 <=1 
C367: x9+x43 <=1 
C368: x9+x44 <=1 
C369: x9+x45 <=1 
C370: x9+x46-y9_46 <=1 
C371: x9+x47 <=1 
C372: x9+x50-y9_50 <=1 
C373: x9+x51-y9_51 <=1 
C374: x9+x55 <=1 
C375: x9+x57 <=1 
C376: x9+x62-y9_62 <=1 
C377: x9+x63 <=1 
C378: x9+x64-y9_64 <=1 
C379: x9+x65 <=1 
C380: x9+x66-y9_66 <=1 
C381: x10+x11-y10_11 <=1 
C382: x10+x12-y10_12 <=1 
C383: x10+x13-y10_13 <=1 
C384: x10+x17 <=1 
C385: x10+x19-y10_19 <=1 
C386: x10+x20-y10_20 <=1 
C387: x10+x23-y10_23 <=1 
C388: x10+x26-y10_26 <=1 
C389: x10+x27 <=1 
C390: x10+x31 <=1 
C391: x10+x33-y10_33 <=1 
C392: x10+x36-y10_36 <=1 
C393: x10+x37 <=1 
C394: x10+x38 <=1 
C395: x10+x39-y10_39 <=1 
C396: x10+x42-y10_42 <=1 
C397: x10+x43 <=1 
C398: x10+x44 <=1 
C399: x10+x47-y10_47 <=1 
C400: x10+x48-y10_48 <=1 
C401: x10+x49-y10_49 <=1 
C402: x10+x50-y10_50 <=1 
C403: x10+x52-y10_52 <=1 
C404: x10+x53 <=1 
C405: x10+x54 <=1 
C406: x10+x57-y10_57 <=1 
C407: x10+x59 <=1 
C408: x10+x60-y10_60 <=1 
C409: x10+x62-y10_62 <=1 
C410: x10+x63 <=1 
C411: x10+x65 <=1 
C412: x10+x66 <=1 
C413: x11+x13-y11_13 <=1 
C414: x11+x14-y11_14 <=1 
C415: x11+x16-y11_16 <=1 
C416: x11+x21 <=1 
C417: x11+x22-y11_22 <=1 
C418: x11+x23-y11_23 <=1 
C419: x11+x25-y11_25 <=1 
C420: x11+x29-y11_29 <=1 
C421: x11+x30-y11_30 <=1 
C422: x11+x31 <=1 
C423: x11+x35-y11_35 <=1 
C424: x11+x36-y11_36 <=1 
C425: x11+x37-y11_37 <=1 
C426: x11+x38-y11_38 <=1 
C427: x11+x39 <=1 
C428: x11+x41 <=1 
C429: x11+x44 <=1 
C430: x11+x45 <=1 
C431: x11+x46 <=1 
C432: x11+x54-y11_54 <=1 
C433: x11+x55 <=1 
C434: x11+x57 <=1 
C435: x11+x58-y11_58 <=1 
C436: x11+x59-y11_59 <=1 
C437: x11+x60-y11_60 <=1 
C438: x11+x61 <=1 
C439: x11+x62 <=1 
C440: x11+x65 <=1 
C441: x12+x13 <=1 
C442: x12+x14 <=1 
C443: x12+x17-y12_17 <=1 
C444: x12+x18-y12_18 <=1 
C445: x12+x21-y12_21 <=1 
C446: x12+x24 <=1 
C447: x12+x30 <=1 
C448: x12+x32-y12_32 <=1 
C449: x12+x33 <=1 
C450: x12+x35-y12_35 <=1 
C451: x12+x36-y12_36 <=1 
C452: x12+x37 <=1 
C453: x12+x38 <=1 
C454: x12+x39 <=1 
C455: x12+x40 <=1 
C456: x12+x42 <=1 
C457: x12+x44 <=1 
C458: x12+x45 <=1 
C459: x12+x46 <=1 
C460: x12+x47-y12_47 <=1 
C461: x12+x48 <=1 
C462: x12+x50-y12_50 <=1 
C463: x12+x53 <=1 
C464: x12+x54-y12_54 <=1 
C465: x12+x55-y12_55 <=1 
C466: x12+x57 <=1 
C467: x12+x61 <=1 
C468: x12+x63 <=1 
C469: x12+x65-y12_65 <=1 
C470: x12+x66-y12_66 <=1 
C471: x13+x15-y13_15 <=1 
C472: x13+x17 <=1 
C473: x13+x18-y13_18 <=1 
C474: x13+x19 <=1 
C475: x13+x22 <=1 
C476: x13+x23-y13_23 <=1 
C477: x13+x24-y13_24 <=1 
C478: x13+x25-y13_25 <=1 
C479: x13+x27 <=1 
C480: x13+x30-y13_30 <=1 
C481: x13+x31 <=1 
C482: x13+x33-y13_33 <=1 
C483: x13+x34 <=1 
C484: x13+x36 <=1 
C485: x13+x38-y13_38 <=1 
C486: x13+x40 <=1 
C487: x13+x41-y13_41 <=1 
C488: x13+x42-y13_42 <=1 
C489: x13+x43-y13_43 <=1 
C490: x13+x44 <=1 
C491: x13+x45-y13_45 <=1 
C492: x13+x46 <=1 
C493: x13+x47 <=1 
C494: x13+x48 <=1 
C495: x13+x49-y13_49 <=1 
C496: x13+x51-y13_51 <=1 
C497: x13+x52-y13_52 <=1 
C498: x13+x53 <=1 
C499: x13+x54 <=1 
C500: x13+x55-y13_55 <=1 
C501: x13+x56 <=1 
C502: x13+x57-y13_57 <=1 
C503: x13+x60-y13_60 <=1 
C504: x13+x61-y13_61 <=1 
C505: x13+x62-y13_62 <=1 
C506: x13+x65-y13_65 <=1 
C507: x13+x66-y13_66 <=1 
C508: x14+x17-y14_17 <=1 
C509: x14+x18 <=1 
C510: x14+x19-y14_19 <=1 
C511: x14+x20 <=1 
C512: x14+x22 <=1 
C513: x14+x25-y14_25 <=1 
C514: x14+x27 <=1 
C515: x14+x28 <=1 
C516: x14+x30-y14_30 <=1 
C517: x14+x31 <=1 
C518: x14+x32-y14_32 <=1 
C519: x14+x36 <=1 
C520: x14+x38-y14_38 <=1 
C521: x14+x39 <=1 
C522: x14+x41 <=1 
C523: x14+x42 <=1 
C524: x14+x43 <=1 
C525: x14+x44 <=1 
C526: x14+x45 <=1 
C527: x14+x47-y14_47 <=1 
C528: x14+x48-y14_48 <=1 
C529: x14+x49-y14_49 <=1 
C530: x14+x50 <=1 
C531: x14+x51 <=1 
C532: x14+x52 <=1 
C533: x14+x53-y14_53 <=1 
C534: x14+x55 <=1 
C535: x14+x56-y14_56 <=1 
C536: x14+x57 <=1 
C537: x14+x60-y14_60 <=1 
C538: x14+x62 <=1 
C539: x14+x63-y14_63 <=1 
C540: x14+x64 <=1 
C541: x14+x65-y14_65 <=1 
C542: x14+x66-y14_66 <=1 
C543: x15+x16-y15_16 <=1 
C544: x15+x17 <=1 
C545: x15+x18-y15_18 <=1 
C546: x15+x22 <=1 
C547: x15+x23 <=1 
C548: x15+x24-y15_24 <=1 
C549: x15+x25-y15_25 <=1 
C550: x15+x26-y15_26 <=1 
C551: x15+x28 <=1 
C552: x15+x29-y15_29 <=1 
C553: x15+x30-y15_30 <=1 
C554: x15+x32 <=1 
C555: x15+x35 <=1 
C556: x15+x37 <=1 
C557: x15+x41-y15_41 <=1 
C558: x15+x42 <=1 
C559: x15+x43 <=1 
C560: x15+x44-y15_44 <=1 
C561: x15+x46-y15_46 <=1 
C562: x15+x48-y15_48 <=1 
C563: x15+x52 <=1 
C564: x15+x53-y15_53 <=1 
C565: x15+x54 <=1 
C566: x15+x55-y15_55 <=1 
C567: x15+x56 <=1 
C568: x15+x57-y15_57 <=1 
C569: x15+x62 <=1 
C570: x15+x64-y15_64 <=1 
C571: x16+x17-y16_17 <=1 
C572: x16+x20 <=1 
C573: x16+x21 <=1 
C574: x16+x24-y16_24 <=1 
C575: x16+x25-y16_25 <=1 
C576: x16+x26 <=1 
C577: x16+x27 <=1 
C578: x16+x28-y16_28 <=1 
C579: x16+x29 <=1 
C580: x16+x30-y16_30 <=1 
C581: x16+x31 <=1 
C582: x16+x33 <=1 
C583: x16+x34-y16_34 <=1 
C584: x16+x35-y16_35 <=1 
C585: x16+x36-y16_36 <=1 
C586: x16+x39 <=1 
C587: x16+x42 <=1 
C588: x16+x45 <=1 
C589: x16+x52 <=1 
C590: x16+x53 <=1 
C591: x16+x55 <=1 
C592: x16+x57-y16_57 <=1 
C593: x16+x59 <=1 
C594: x16+x60 <=1 
C595: x16+x61-y16_61 <=1 
C596: x16+x65 <=1 
C597: x16+x66-y16_66 <=1 
C598: x17+x20-y17_20 <=1 
C599: x17+x22 <=1 
C600: x17+x24-y17_24 <=1 
C601: x17+x28 <=1 
C602: x17+x29 <=1 
C603: x17+x32-y17_32 <=1 
C604: x17+x33-y17_33 <=1 
C605: x17+x34 <=1 
C606: x17+x36 <=1 
C607: x17+x38-y17_38 <=1 
C608: x17+x39-y17_39 <=1 
C609: x17+x40 <=1 
C610: x17+x41 <=1 
C611: x17+x42 <=1 
C612: x17+x43-y17_43 <=1 
C613: x17+x44 <=1 
C614: x17+x45 <=1 
C615: x17+x46-y17_46 <=1 
C616: x17+x47 <=1 
C617: x17+x50 <=1 
C618: x17+x51-y17_51 <=1 
C619: x17+x55 <=1 
C620: x17+x57 <=1 
C621: x17+x58 <=1 
C622: x17+x60 <=1 
C623: x17+x61-y17_61 <=1 
C624: x17+x63 <=1 
C625: x17+x64 <=1 
C626: x17+x65 <=1 
C627: x17+x66-y17_66 <=1 
C628: x18+x19-y18_19 <=1 
C629: x18+x21 <=1 
C630: x18+x23-y18_23 <=1 
C631: x18+x26 <=1 
C632: x18+x27-y18_27 <=1 
C633: x18+x28-y18_28 <=1 
C634: x18+x29 <=1 
C635: x18+x31-y18_31 <=1 
C636: x18+x32-y18_32 <=1 
C637: x18+x36 <=1 
C638: x18+x37 <=1 
C639: x18+x39 <=1 
C640: x18+x40-y18_40 <=1 
C641: x18+x42-y18_42 <=1 
C642: x18+x45 <=1 
C643: x18+x46 <=1 
C644: x18+x47 <=1 
C645: x18+x48-y18_48 <=1 
C646: x18+x50 <=1 
C647: x18+x52 <=1 
C648: x18+x53 <=1 
C649: x18+x54 <=1 
C650: x18+x55-y18_55 <=1 
C651: x18+x57-y18_57 <=1 
C652: x18+x58 <=1 
C653: x18+x59 <=1 
C654: x18+x60-y18_60 <=1 
C655: x18+x61 <=1 
C656: x18+x62 <=1 
C657: x19+x22 <=1 
C658: x19+x23-y19_23 <=1 
C659: x19+x24-y19_24 <=1 
C660: x19+x26 <=1 
C661: x19+x27-y19_27 <=1 
C662: x19+x28 <=1 
C663: x19+x31-y19_31 <=1 
C664: x19+x32-y19_32 <=1 
C665: x19+x33-y19_33 <=1 
C666: x19+x35 <=1 
C667: x19+x37-y19_37 <=1 
C668: x19+x39-y19_39 <=1 
C669: x19+x42-y19_42 <=1 
C670: x19+x46-y19_46 <=1 
C671: x19+x47-y19_47 <=1 
C672: x19+x48-y19_48 <=1 
C673: x19+x49 <=1 
C674: x19+x50-y19_50 <=1 
C675: x19+x52-y19_52 <=1 
C676: x19+x54 <=1 
C677: x19+x55 <=1 
C678: x19+x56 <=1 
C679: x19+x58 <=1 
C680: x19+x60 <=1 
C681: x19+x63-y19_63 <=1 
C682: x19+x64-y19_64 <=1 
C683: x19+x65 <=1 
C684: x19+x66 <=1 
C685: x20+x22 <=1 
C686: x20+x23 <=1 
C687: x20+x26 <=1 
C688: x20+x27 <=1 
C689: x20+x28-y20_28 <=1 
C690: x20+x29 <=1 
C691: x20+x30 <=1 
C692: x20+x32 <=1 
C693: x20+x33 <=1 
C694: x20+x35 <=1 
C695: x20+x36 <=1 
C696: x20+x37-y20_37 <=1 
C697: x20+x38 <=1 
C698: x20+x40-y20_40 <=1 
C699: x20+x43-y20_43 <=1 
C700: x20+x45-y20_45 <=1 
C701: x20+x46 <=1 
C702: x20+x47-y20_47 <=1 
C703: x20+x49 <=1 
C704: x20+x51-y20_51 <=1 
C705: x20+x52-y20_52 <=1 
C706: x20+x53 <=1 
C707: x20+x56-y20_56 <=1 
C708: x20+x57 <=1 
C709: x20+x59-y20_59 <=1 
C710: x20+x60 <=1 
C711: x20+x62 <=1 
C712: x20+x63-y20_63 <=1 
C713: x20+x64 <=1 
C714: x20+x65-y20_65 <=1 
C715: x20+x66 <=1 
C716: x21+x25 <=1 
C717: x21+x28-y21_28 <=1 
C718: x21+x31-y21_31 <=1 
C719: x21+x32 <=1 
C720: x21+x34-y21_34 <=1 
C721: x21+x38 <=1 
C722: x21+x39 <=1 
C723: x21+x40-y21_40 <=1 
C724: x21+x41 <=1 
C725: x21+x44 <=1 
C726: x21+x45-y21_45 <=1 
C727: x21+x47 <=1 
C728: x21+x48-y21_48 <=1 
C729: x21+x49 <=1 
C730: x21+x50 <=1 
C731: x21+x51-y21_51 <=1 
C732: x21+x52-y21_52 <=1 
C733: x21+x53 <=1 
C734: x21+x54-y21_54 <=1 
C735: x21+x55-y21_55 <=1 
C736: x21+x65-y21_65 <=1 
C737: x21+x66-y21_66 <=1 
C738: x22+x26 <=1 
C739: x22+x28-y22_28 <=1 
C740: x22+x30-y22_30 <=1 
C741: x22+x31 <=1 
C742: x22+x33 <=1 
C743: x22+x34-y22_34 <=1 
C744: x22+x37 <=1 
C745: x22+x39 <=1 
C746: x22+x41 <=1 
C747: x22+x42 <=1 
C748: x22+x46 <=1 
C749: x22+x48-y22_48 <=1 
C750: x22+x50 <=1 
C751: x22+x51-y22_51 <=1 
C752: x22+x53 <=1 
C753: x22+x54-y22_54 <=1 
C754: x22+x56-y22_56 <=1 
C755: x22+x57 <=1 
C756: x22+x58-y22_58 <=1 
C757: x22+x59-y22_59 <=1 
C758: x22+x60-y22_60 <=1 
C759: x22+x61-y22_61 <=1 
C760: x22+x62 <=1 
C761: x22+x63 <=1 
C762: x22+x65 <=1 
C763: x22+x66 <=1 
C764: x23+x25-y23_25 <=1 
C765: x23+x28-y23_28 <=1 
C766: x23+x30-y23_30 <=1 
C767: x23+x33-y23_33 <=1 
C768: x23+x35 <=1 
C769: x23+x37 <=1 
C770: x23+x40 <=1 
C771: x23+x43 <=1 
C772: x23+x44 <=1 
C773: x23+x47 <=1 
C774: x23+x49 <=1 
C775: x23+x51 <=1 
C776: x23+x52-y23_52 <=1 
C777: x23+x53 <=1 
C778: x23+x54 <=1 
C779: x23+x55 <=1 
C780: x23+x56 <=1 
C781: x23+x57 <=1 
C782: x23+x59 <=1 
C783: x23+x61 <=1 
C784: x23+x63-y23_63 <=1 
C785: x23+x64-y23_64 <=1 
C786: x23+x66-y23_66 <=1 
C787: x24+x25 <=1 
C788: x24+x26 <=1 
C789: x24+x27 <=1 
C790: x24+x30 <=1 
C791: x24+x32 <=1 
C792: x24+x33-y24_33 <=1 
C793: x24+x34-y24_34 <=1 
C794: x24+x35-y24_35 <=1 
C795: x24+x36-y24_36 <=1 
C796: x24+x37 <=1 
C797: x24+x38 <=1 
C798: x24+x39-y24_39 <=1 
C799: x24+x40-y24_40 <=1 
C800: x24+x42-y24_42 <=1 
C801: x24+x43-y24_43 <=1 
C802: x24+x45-y24_45 <=1 
C803: x24+x47-y24_47 <=1 
C804: x24+x48 <=1 
C805: x24+x49 <=1 
C806: x24+x51 <=1 
C807: x24+x54 <=1 
C808: x24+x55-y24_55 <=1 
C809: x24+x57-y24_57 <=1 
C810: x24+x58 <=1 
C811: x24+x60-y24_60 <=1 
C812: x24+x62-y24_62 <=1 
C813: x24+x63-y24_63 <=1 
C814: x24+x65 <=1 
C815: x25+x26 <=1 
C816: x25+x27-y25_27 <=1 
C817: x25+x28 <=1 
C818: x25+x29 <=1 
C819: x25+x30 <=1 
C820: x25+x32 <=1 
C821: x25+x36-y25_36 <=1 
C822: x25+x37 <=1 
C823: x25+x38 <=1 
C824: x25+x39 <=1 
C825: x25+x40-y25_40 <=1 
C826: x25+x41-y25_41 <=1 
C827: x25+x45 <=1 
C828: x25+x49-y25_49 <=1 
C829: x25+x52-y25_52 <=1 
C830: x25+x53-y25_53 <=1 
C831: x25+x54-y25_54 <=1 
C832: x25+x56 <=1 
C833: x25+x57-y25_57 <=1 
C834: x25+x58 <=1 
C835: x25+x59-y25_59 <=1 
C836: x25+x60 <=1 
C837: x25+x62 <=1 
C838: x25+x63 <=1 
C839: x25+x64 <=1 
C840: x25+x65-y25_65 <=1 
C841: x25+x66-y25_66 <=1 
C842: x26+x27 <=1 
C843: x26+x28 <=1 
C844: x26+x29-y26_29 <=1 
C845: x26+x30-y26_30 <=1 
C846: x26+x33 <=1 
C847: x26+x34-y26_34 <=1 
C848: x26+x35 <=1 
C849: x26+x37-y26_37 <=1 
C850: x26+x39-y26_39 <=1 
C851: x26+x40-y26_40 <=1 
C852: x26+x42 <=1 
C853: x26+x43 <=1 
C854: x26+x44-y26_44 <=1 
C855: x26+x45 <=1 
C856: x26+x46-y26_46 <=1 
C857: x26+x47-y26_47 <=1 
C858: x26+x48 <=1 
C859: x26+x50 <=1 
C860: x26+x51-y26_51 <=1 
C861: x26+x52 <=1 
C862: x26+x54 <=1 
C863: x26+x56 <=1 
C864: x26+x58 <=1 
C865: x26+x60-y26_60 <=1 
C866: x26+x62 <=1 
C867: x26+x63 <=1 
C868: x26+x66 <=1 
C869: x27+x28 <=1 
C870: x27+x29 <=1 
C871: x27+x31-y27_31 <=1 
C872: x27+x33-y27_33 <=1 
C873: x27+x34-y27_34 <=1 
C874: x27+x35-y27_35 <=1 
C875: x27+x37-y27_37 <=1 
C876: x27+x39 <=1 
C877: x27+x43 <=1 
C878: x27+x45-y27_45 <=1 
C879: x27+x48-y27_48 <=1 
C880: x27+x49-y27_49 <=1 
C881: x27+x52 <=1 
C882: x27+x53 <=1 
C883: x27+x56-y27_56 <=1 
C884: x27+x57-y27_57 <=1 
C885: x27+x58-y27_58 <=1 
C886: x27+x59-y27_59 <=1 
C887: x27+x61-y27_61 <=1 
C888: x27+x63 <=1 
C889: x27+x65-y27_65 <=1 
C890: x28+x29-y28_29 <=1 
C891: x28+x31 <=1 
C892: x28+x32-y28_32 <=1 
C893: x28+x34-y28_34 <=1 
C894: x28+x35 <=1 
C895: x28+x38-y28_38 <=1 
C896: x28+x40 <=1 
C897: x28+x41-y28_41 <=1 
C898: x28+x45 <=1 
C899: x28+x46 <=1 
C900: x28+x47-y28_47 <=1 
C901: x28+x48-y28_48 <=1 
C902: x28+x49 <=1 
C903: x28+x51-y28_51 <=1 
C904: x28+x52 <=1 
C905: x28+x53 <=1 
C906: x28+x55-y28_55 <=1 
C907: x28+x57 <=1 
C908: x28+x58 <=1 
C909: x28+x61-y28_61 <=1 
C910: x28+x62 <=1 
C911: x28+x63 <=1 
C912: x28+x64-y28_64 <=1 
C913: x28+x65-y28_65 <=1 
C914: x28+x66 <=1 
C915: x29+x32 <=1 
C916: x29+x33 <=1 
C917: x29+x34 <=1 
C918: x29+x36-y29_36 <=1 
C919: x29+x37 <=1 
C920: x29+x39 <=1 
C921: x29+x42 <=1 
C922: x29+x46-y29_46 <=1 
C923: x29+x47 <=1 
C924: x29+x50-y29_50 <=1 
C925: x29+x52-y29_52 <=1 
C926: x29+x53 <=1 
C927: x29+x57 <=1 
C928: x29+x61-y29_61 <=1 
C929: x29+x63 <=1 
C930: x29+x65-y29_65 <=1 
C931: x29+x66-y29_66 <=1 
C932: x30+x31 <=1 
C933: x30+x32 <=1 
C934: x30+x34-y30_34 <=1 
C935: x30+x39-y30_39 <=1 
C936: x30+x41-y30_41 <=1 
C937: x30+x43-y30_43 <=1 
C938: x30+x45 <=1 
C939: x30+x47-y30_47 <=1 
C940: x30+x48 <=1 
C941: x30+x49 <=1 
C942: x30+x50 <=1 
C943: x30+x52-y30_52 <=1 
C944: x30+x54-y30_54 <=1 
C945: x30+x57 <=1 
C946: x30+x58 <=1 
C947: x30+x61-y30_61 <=1 
C948: x30+x62 <=1 
C949: x30+x63 <=1 
C950: x30+x64-y30_64 <=1 
C951: x30+x66 <=1 
C952: x31+x33 <=1 
C953: x31+x40 <=1 
C954: x31+x42 <=1 
C955: x31+x43-y31_43 <=1 
C956: x31+x44-y31_44 <=1 
C957: x31+x46-y31_46 <=1 
C958: x31+x47 <=1 
C959: x31+x50 <=1 
C960: x31+x51-y31_51 <=1 
C961: x31+x52-y31_52 <=1 
C962: x31+x53-y31_53 <=1 
C963: x31+x54 <=1 
C964: x31+x55 <=1 
C965: x31+x56-y31_56 <=1 
C966: x31+x57-y31_57 <=1 
C967: x31+x59 <=1 
C968: x31+x62 <=1 
C969: x31+x65 <=1 
C970: x31+x66-y31_66 <=1 
C971: x32+x34-y32_34 <=1 
C972: x32+x36 <=1 
C973: x32+x37-y32_37 <=1 
C974: x32+x40-y32_40 <=1 
C975: x32+x41-y32_41 <=1 
C976: x32+x46 <=1 
C977: x32+x47-y32_47 <=1 
C978: x32+x48 <=1 
C979: x32+x49 <=1 
C980: x32+x51 <=1 
C981: x32+x52 <=1 
C982: x32+x53-y32_53 <=1 
C983: x32+x55-y32_55 <=1 
C984: x32+x56-y32_56 <=1 
C985: x32+x59-y32_59 <=1 
C986: x32+x60 <=1 
C987: x32+x61-y32_61 <=1 
C988: x32+x63-y32_63 <=1 
C989: x32+x64 <=1 
C990: x33+x34 <=1 
C991: x33+x35 <=1 
C992: x33+x38-y33_38 <=1 
C993: x33+x39 <=1 
C994: x33+x40 <=1 
C995: x33+x41 <=1 
C996: x33+x42-y33_42 <=1 
C997: x33+x44 <=1 
C998: x33+x45 <=1 
C999: x33+x46 <=1 
C1000: x33+x47-y33_47 <=1 
C1001: x33+x49 <=1 
C1002: x33+x50 <=1 
C1003: x33+x51 <=1 
C1004: x33+x56 <=1 
C1005: x33+x58-y33_58 <=1 
C1006: x33+x59 <=1 
C1007: x33+x60 <=1 
C1008: x33+x61 <=1 
C1009: x33+x62 <=1 
C1010: x33+x64 <=1 
C1011: x33+x65-y33_65 <=1 
C1012: x33+x66-y33_66 <=1 
C1013: x34+x35 <=1 
C1014: x34+x38 <=1 
C1015: x34+x39 <=1 
C1016: x34+x40 <=1 
C1017: x34+x43 <=1 
C1018: x34+x44-y34_44 <=1 
C1019: x34+x45 <=1 
C1020: x34+x46 <=1 
C1021: x34+x47 <=1 
C1022: x34+x48-y34_48 <=1 
C1023: x34+x49 <=1 
C1024: x34+x50-y34_50 <=1 
C1025: x34+x52 <=1 
C1026: x34+x53 <=1 
C1027: x34+x55 <=1 
C1028: x34+x56 <=1 
C1029: x34+x60-y34_60 <=1 
C1030: x34+x61-y34_61 <=1 
C1031: x34+x62-y34_62 <=1 
C1032: x34+x64-y34_64 <=1 
C1033: x34+x66 <=1 
C1034: x35+x36-y35_36 <=1 
C1035: x35+x37-y35_37 <=1 
C1036: x35+x38-y35_38 <=1 
C1037: x35+x39 <=1 
C1038: x35+x40-y35_40 <=1 
C1039: x35+x41-y35_41 <=1 
C1040: x35+x44-y35_44 <=1 
C1041: x35+x45-y35_45 <=1 
C1042: x35+x47 <=1 
C1043: x35+x48 <=1 
C1044: x35+x49 <=1 
C1045: x35+x51-y35_51 <=1 
C1046: x35+x52-y35_52 <=1 
C1047: x35+x53-y35_53 <=1 
C1048: x35+x55-y35_55 <=1 
C1049: x35+x58-y35_58 <=1 
C1050: x35+x59 <=1 
C1051: x35+x60-y35_60 <=1 
C1052: x35+x61-y35_61 <=1 
C1053: x35+x62 <=1 
C1054: x35+x66-y35_66 <=1 
C1055: x36+x37-y36_37 <=1 
C1056: x36+x38-y36_38 <=1 
C1057: x36+x39 <=1 
C1058: x36+x40 <=1 
C1059: x36+x43 <=1 
C1060: x36+x44-y36_44 <=1 
C1061: x36+x47-y36_47 <=1 
C1062: x36+x48-y36_48 <=1 
C1063: x36+x54-y36_54 <=1 
C1064: x36+x55-y36_55 <=1 
C1065: x36+x56-y36_56 <=1 
C1066: x36+x61-y36_61 <=1 
C1067: x36+x62-y36_62 <=1 
C1068: x36+x65 <=1 
C1069: x37+x39 <=1 
C1070: x37+x45-y37_45 <=1 
C1071: x37+x46-y37_46 <=1 
C1072: x37+x47-y37_47 <=1 
C1073: x37+x48-y37_48 <=1 
C1074: x37+x49 <=1 
C1075: x37+x52 <=1 
C1076: x37+x53 <=1 
C1077: x37+x55 <=1 
C1078: x37+x56 <=1 
C1079: x37+x57-y37_57 <=1 
C1080: x37+x58-y37_58 <=1 
C1081: x37+x59-y37_59 <=1 
C1082: x37+x61-y37_61 <=1 
C1083: x37+x63 <=1 
C1084: x37+x64-y37_64 <=1 
C1085: x37+x65-y37_65 <=1 
C1086: x37+x66 <=1 
C1087: x38+x40-y38_40 <=1 
C1088: x38+x42 <=1 
C1089: x38+x43-y38_43 <=1 
C1090: x38+x44 <=1 
C1091: x38+x45-y38_45 <=1 
C1092: x38+x46 <=1 
C1093: x38+x47 <=1 
C1094: x38+x48 <=1 
C1095: x38+x51 <=1 
C1096: x38+x53 <=1 
C1097: x38+x54 <=1 
C1098: x38+x56 <=1 
C1099: x38+x57-y38_57 <=1 
C1100: x38+x58-y38_58 <=1 
C1101: x38+x60-y38_60 <=1 
C1102: x38+x61-y38_61 <=1 
C1103: x38+x64 <=1 
C1104: x38+x66-y38_66 <=1 
C1105: x39+x40 <=1 
C1106: x39+x42-y39_42 <=1 
C1107: x39+x44-y39_44 <=1 
C1108: x39+x48-y39_48 <=1 
C1109: x39+x52 <=1 
C1110: x39+x53 <=1 
C1111: x39+x54 <=1 
C1112: x39+x59 <=1 
C1113: x39+x64-y39_64 <=1 
C1114: x39+x65-y39_65 <=1 
C1115: x40+x43-y40_43 <=1 
C1116: x40+x45-y40_45 <=1 
C1117: x40+x47-y40_47 <=1 
C1118: x40+x48-y40_48 <=1 
C1119: x40+x49 <=1 
C1120: x40+x51-y40_51 <=1 
C1121: x40+x52-y40_52 <=1 
C1122: x40+x53 <=1 
C1123: x40+x55-y40_55 <=1 
C1124: x40+x56-y40_56 <=1 
C1125: x40+x57-y40_57 <=1 
C1126: x40+x58 <=1 
C1127: x40+x59 <=1 
C1128: x40+x60 <=1 
C1129: x40+x62-y40_62 <=1 
C1130: x40+x63 <=1 
C1131: x40+x66-y40_66 <=1 
C1132: x41+x42-y41_42 <=1 
C1133: x41+x45 <=1 
C1134: x41+x49-y41_49 <=1 
C1135: x41+x51-y41_51 <=1 
C1136: x41+x52 <=1 
C1137: x41+x54-y41_54 <=1 
C1138: x41+x55 <=1 
C1139: x41+x57-y41_57 <=1 
C1140: x41+x59 <=1 
C1141: x41+x60-y41_60 <=1 
C1142: x41+x61-y41_61 <=1 
C1143: x41+x62 <=1 
C1144: x41+x64-y41_64 <=1 
C1145: x41+x65-y41_65 <=1 
C1146: x42+x43-y42_43 <=1 
C1147: x42+x44 <=1 
C1148: x42+x45 <=1 
C1149: x42+x46 <=1 
C1150: x42+x47 <=1 
C1151: x42+x48-y42_48 <=1 
C1152: x42+x49 <=1 
C1153: x42+x51-y42_51 <=1 
C1154: x42+x54 <=1 
C1155: x42+x55-y42_55 <=1 
C1156: x42+x58-y42_58 <=1 
C1157: x42+x60 <=1 
C1158: x42+x61 <=1 
C1159: x42+x62 <=1 
C1160: x42+x63-y42_63 <=1 
C1161: x42+x64 <=1 
C1162: x42+x65-y42_65 <=1 
C1163: x42+x66-y42_66 <=1 
C1164: x43+x45-y43_45 <=1 
C1165: x43+x46-y43_46 <=1 
C1166: x43+x47 <=1 
C1167: x43+x49-y43_49 <=1 
C1168: x43+x54 <=1 
C1169: x43+x55 <=1 
C1170: x43+x56-y43_56 <=1 
C1171: x43+x57-y43_57 <=1 
C1172: x43+x58 <=1 
C1173: x43+x61 <=1 
C1174: x43+x62 <=1 
C1175: x43+x65-y43_65 <=1 
C1176: x43+x66-y43_66 <=1 
C1177: x44+x45-y44_45 <=1 
C1178: x44+x46 <=1 
C1179: x44+x47-y44_47 <=1 
C1180: x44+x49-y44_49 <=1 
C1181: x44+x50 <=1 
C1182: x44+x52-y44_52 <=1 
C1183: x44+x53 <=1 
C1184: x44+x54 <=1 
C1185: x44+x58-y44_58 <=1 
C1186: x44+x59 <=1 
C1187: x44+x62-y44_62 <=1 
C1188: x44+x65-y44_65 <=1 
C1189: x44+x66-y44_66 <=1 
C1190: x45+x46-y45_46 <=1 
C1191: x45+x49 <=1 
C1192: x45+x51-y45_51 <=1 
C1193: x45+x52 <=1 
C1194: x45+x53-y45_53 <=1 
C1195: x45+x54-y45_54 <=1 
C1196: x45+x57 <=1 
C1197: x45+x59 <=1 
C1198: x45+x62 <=1 
C1199: x45+x63-y45_63 <=1 
C1200: x45+x64-y45_64 <=1 
C1201: x45+x65-y45_65 <=1 
C1202: x46+x47-y46_47 <=1 
C1203: x46+x48-y46_48 <=1 
C1204: x46+x49 <=1 
C1205: x46+x51 <=1 
C1206: x46+x53 <=1 
C1207: x46+x54 <=1 
C1208: x46+x55 <=1 
C1209: x46+x57-y46_57 <=1 
C1210: x46+x63 <=1 
C1211: x46+x65 <=1 
C1212: x47+x49 <=1 
C1213: x47+x51 <=1 
C1214: x47+x53 <=1 
C1215: x47+x55 <=1 
C1216: x47+x56 <=1 
C1217: x47+x57-y47_57 <=1 
C1218: x47+x61-y47_61 <=1 
C1219: x47+x62-y47_62 <=1 
C1220: x47+x64-y47_64 <=1 
C1221: x47+x65 <=1 
C1222: x48+x52-y48_52 <=1 
C1223: x48+x53-y48_53 <=1 
C1224: x48+x57 <=1 
C1225: x48+x59-y48_59 <=1 
C1226: x48+x60 <=1 
C1227: x48+x61-y48_61 <=1 
C1228: x48+x62-y48_62 <=1 
C1229: x48+x63-y48_63 <=1 
C1230: x49+x52 <=1 
C1231: x49+x54 <=1 
C1232: x49+x55 <=1 
C1233: x49+x56 <=1 
C1234: x49+x58-y49_58 <=1 
C1235: x49+x60 <=1 
C1236: x49+x62-y49_62 <=1 
C1237: x49+x63 <=1 
C1238: x49+x64-y49_64 <=1 
C1239: x50+x52-y50_52 <=1 
C1240: x50+x53 <=1 
C1241: x50+x54 <=1 
C1242: x50+x55 <=1 
C1243: x50+x56-y50_56 <=1 
C1244: x50+x58 <=1 
C1245: x50+x60 <=1 
C1246: x50+x61 <=1 
C1247: x50+x62-y50_62 <=1 
C1248: x50+x63 <=1 
C1249: x50+x65-y50_65 <=1 
C1250: x51+x52-y51_52 <=1 
C1251: x51+x53 <=1 
C1252: x51+x54-y51_54 <=1 
C1253: x51+x55 <=1 
C1254: x51+x56 <=1 
C1255: x51+x58 <=1 
C1256: x51+x59 <=1 
C1257: x51+x60 <=1 
C1258: x51+x61-y51_61 <=1 
C1259: x51+x63-y51_63 <=1 
C1260: x51+x64-y51_64 <=1 
C1261: x51+x65-y51_65 <=1 
C1262: x52+x54 <=1 
C1263: x52+x55-y52_55 <=1 
C1264: x52+x56 <=1 
C1265: x52+x57 <=1 
C1266: x52+x61 <=1 
C1267: x52+x62 <=1 
C1268: x52+x65 <=1 
C1269: x53+x55-y53_55 <=1 
C1270: x53+x57-y53_57 <=1 
C1271: x53+x60-y53_60 <=1 
C1272: x53+x61-y53_61 <=1 
C1273: x53+x64-y53_64 <=1 
C1274: x53+x65-y53_65 <=1 
C1275: x54+x56 <=1 
C1276: x54+x60 <=1 
C1277: x54+x62 <=1 
C1278: x54+x64 <=1 
C1279: x54+x66 <=1 
C1280: x55+x57-y55_57 <=1 
C1281: x55+x59 <=1 
C1282: x55+x60-y55_60 <=1 
C1283: x55+x62-y55_62 <=1 
C1284: x55+x63-y55_63 <=1 
C1285: x55+x64 <=1 
C1286: x56+x57-y56_57 <=1 
C1287: x56+x58 <=1 
C1288: x56+x59 <=1 
C1289: x56+x61 <=1 
C1290: x56+x62-y56_62 <=1 
C1291: x56+x64-y56_64 <=1 
C1292: x56+x66-y56_66 <=1 
C1293: x57+x59-y57_59 <=1 
C1294: x57+x60-y57_60 <=1 
C1295: x57+x61-y57_61 <=1 
C1296: x57+x62 <=1 
C1297: x57+x63 <=1 
C1298: x58+x59-y58_59 <=1 
C1299: x58+x61-y58_61 <=1 
C1300: x58+x62 <=1 
C1301: x58+x64 <=1 
C1302: x58+x65 <=1 
C1303: x58+x66-y58_66 <=1 
C1304: x59+x64-y59_64 <=1 
C1305: x59+x65 <=1 
C1306: x60+x63-y60_63 <=1 
C1307: x60+x64 <=1 
C1308: x60+x65-y60_65 <=1 
C1309: x60+x66 <=1 
C1310: x61+x62-y61_62 <=1 
C1311: x61+x63 <=1 
C1312: x61+x64 <=1 
C1313: x61+x66-y61_66 <=1 
C1314: x62+x63 <=1 
C1315: x62+x64-y62_64 <=1 
C1316: x62+x65 <=1 
C1317: x62+x66 <=1 
C1318: x63+x65-y63_65 <=1 
C1319: x63+x66 <=1 
C1320: x64+x65 <=1 
C1321: x65+x66-y65_66 <=1 

binary
x0
x1
x2
x3
x4
x5
x6
x7
x8
x9
x10
x11
x12
x13
x14
x15
x16
x17
x18
x19
x20
x21
x22
x23
x24
x25
x26
x27
x28
x29
x30
x31
x32
x33
x34
x35
x36
x37
x38
x39
x40
x41
x42
x43
x44
x45
x46
x47
x48
x49
x50
x51
x52
x53
x54
x55
x56
x57
x58
x59
x60
x61
x62
x63
x64
x65
x66
