problem_generation/data/GISP/train/er_n=67_m=1321_p=0.60_SET2_setparam=100.00_alpha=0.50_666.sol
objective value:                                 1263
x1                                                  1 	(obj:100)
x4                                                  1 	(obj:100)
x8                                                  1 	(obj:100)
x10                                                 1 	(obj:100)
x11                                                 1 	(obj:100)
x19                                                 1 	(obj:100)
x23                                                 1 	(obj:100)
x25                                                 1 	(obj:100)
x34                                                 1 	(obj:100)
x36                                                 1 	(obj:100)
x42                                                 1 	(obj:100)
x48                                                 1 	(obj:100)
x50                                                 1 	(obj:100)
y11_23                                              1 	(obj:-1)
y10_36                                              1 	(obj:-1)
y36_48                                              1 	(obj:-1)
y1_34                                               1 	(obj:-1)
y10_11                                              1 	(obj:-1)
y42_48                                              1 	(obj:-1)
y23_25                                              1 	(obj:-1)
y8_50                                               1 	(obj:-1)
y19_50                                              1 	(obj:-1)
y4_25                                               1 	(obj:-1)
y1_10                                               1 	(obj:-1)
y1_19                                               1 	(obj:-1)
y4_11                                               1 	(obj:-1)
y34_48                                              1 	(obj:-1)
y1_23                                               1 	(obj:-1)
y11_36                                              1 	(obj:-1)
y4_19                                               1 	(obj:-1)
y10_48                                              1 	(obj:-1)
y25_36                                              1 	(obj:-1)
y10_42                                              1 	(obj:-1)
y10_19                                              1 	(obj:-1)
y10_23                                              1 	(obj:-1)
y4_42                                               1 	(obj:-1)
y19_48                                              1 	(obj:-1)
y1_8                                                1 	(obj:-1)
y8_34                                               1 	(obj:-1)
y11_25                                              1 	(obj:-1)
y34_50                                              1 	(obj:-1)
y1_25                                               1 	(obj:-1)
y8_42                                               1 	(obj:-1)
y19_42                                              1 	(obj:-1)
y4_8                                                1 	(obj:-1)
y1_11                                               1 	(obj:-1)
y8_10                                               1 	(obj:-1)
y8_19                                               1 	(obj:-1)
y19_23                                              1 	(obj:-1)
y10_50                                              1 	(obj:-1)
